p cnf 21 8
e 1 2 0
a 3 4 5 0
e 6 7 0
a 8 0
e 9 10 0
a 11 12 0
e 13 0
a 14 0
e 15 16 0
a 17 18 0
e 19 0
a 20 21 0
-8 -14 -9 15 7 0
1 -7 8 0
21 -13 2 -18 -5 0
9 10 20 0
18 5 9 20 0
-20 6 -11 -7 0
-16 -12 2 -5 0
-8 -14 -18 -20 -21 0
